unknown
(model
; cardinality of BoundSet is 2
(declare-sort BoundSet 0)
; rep: @uc_BoundSet_0
; rep: @uc_BoundSet_1
; cardinality of UnboundSet is 1
(declare-sort UnboundSet 0)
(declare-fun groundTerm_3 () UnboundSet)
(define-fun IsCooler ((BOUND_VARIABLE_436 BoundSet)) Bool true)
(define-fun IsInHundredsOfMillionsOfYearsAgo ((BOUND_VARIABLE_436 BoundSet)) Bool true)
(define-fun IsWithinLast100MillionYears ((BOUND_VARIABLE_436 BoundSet)) Bool false)
(define-fun IsUnparalleled ((BOUND_VARIABLE_436 BoundSet)) Bool false)
(define-fun IsWorseThanPreviouslyCalculated ((BOUND_VARIABLE_436 BoundSet)) Bool false)
)
sat
(model
; cardinality of BoundSet is 1
(declare-sort BoundSet 0)
; rep: @uc_BoundSet_0
; cardinality of UnboundSet is 1
(declare-sort UnboundSet 0)
(declare-fun groundTerm_6 () UnboundSet)
(define-fun IsCooler ((BOUND_VARIABLE_477 BoundSet)) Bool true)
(define-fun IsInHundredsOfMillionsOfYearsAgo ((BOUND_VARIABLE_477 BoundSet)) Bool true)
(define-fun IsWithinLast100MillionYears ((BOUND_VARIABLE_477 BoundSet)) Bool false)
(define-fun IsUnparalleled ((BOUND_VARIABLE_477 BoundSet)) Bool false)
(define-fun IsWorseThanPreviouslyCalculated ((BOUND_VARIABLE_477 BoundSet)) Bool false)
)
